c Sudoku solution
p cnf 729 0
127 0
142 0
189 0
232 0
271 0
295 0
349 0
373 0
388 0
392 0
287 0
459 0
494 0
196 0
174 0
525 0
538 0
543 0
551 0
562 0
586 0
514 0
629 0
219 0
658 0
478 0
682 0
728 0
118 0
772 0
866 0
976 0
879 0
675 0
577 0
599 0
911 0
933 0
739 0
716 0
969 0
315 0
835 0
817 0
412 0
613 0
483 0
691 0
223 0
131 0
361 0
357 0
421 0
326 0
334 0
256 0
268 0
244 0
664 0
984 0
881 0
785 0
741 0
848 0
754 0
824 0
922 0
852 0
955 0
763 0
947 0
797 0
893 0
998 0
445 0
467 0
646 0
436 0
637 0
153 0
165 0
